(set-logic QF_LIA)
(declare-const a1 Int)
(declare-const a2 Int)
(declare-const a3 Int)
(declare-const a4 Int)
(declare-const a5 Int)
(declare-const a6 Int)
(declare-const l1 Int)
(declare-const l2 Int)
(declare-const l Int)
(assert (and (= (+ (* 50 a1 l1) (- (* a3 l1)) (- l1)
                    (* 50 a4 l2) (- (* a6 l2)) (- l2))
                 (- l))
              (= (+ (* a2 l1) (* a3 l2))
                 0)))
(check-sat)
(get-value (a1 a2 a3 a4 a5 a6 l l1 l2))
